p tw 1038 1833
0 2
0 1
1 2
1 81
1 80
2 53
2 52
3 4
4 58
4 57
5 6
6 53
6 54
7 8
8 56
8 55
9 10
10 93
10 92
11 12
12 60
12 59
13 14
14 25
14 23
14 18
14 17
14 39
15 16
16 62
16 61
17 18
18 23
18 22
19 21
19 20
20 21
20 96
20 95
20 74
20 23
20 60
20 73
20 61
20 75
21 98
21 97
21 38
21 25
22 23
23 25
23 74
24 25
25 38
25 26
25 28
25 31
25 36
25 34
27 28
28 29
30 31
31 32
33 34
34 36
35 36
36 106
36 105
36 100
37 38
38 100
38 99
38 40
38 41
38 42
38 43
38 131
44 45
45 108
45 107
46 47
47 110
47 109
48 49
49 112
49 111
49 50
49 51
52 53
52 79
52 78
53 54
53 87
54 67
54 66
55 56
55 66
55 68
56 70
56 69
57 58
57 66
57 65
58 64
58 63
59 60
59 72
59 71
60 73
61 62
61 75
62 77
62 76
63 64
63 83
64 82
65 66
65 84
66 67
66 68
66 86
66 85
67 88
67 81
68 89
68 84
69 70
69 91
70 90
71 72
73 94
74 93
74 101
75 102
75 94
76 77
76 103
77 104
77 103
78 79
79 161
79 160
79 135
79 87
80 81
81 88
81 161
81 160
84 89
84 161
84 160
85 86
86 134
86 133
87 135
88 104
88 103
90 104
90 103
91 103
92 93
93 101
93 164
93 160
94 102
94 164
94 160
95 96
95 120
95 119
96 116
96 115
97 98
97 114
97 113
98 137
98 136
99 100
101 104
101 103
103 104
103 120
103 166
103 122
103 134
103 135
103 140
103 146
103 156
104 120
104 122
104 166
104 134
104 135
104 140
104 146
104 152
104 156
105 106
105 143
105 142
106 124
106 123
107 108
107 128
107 127
108 126
108 125
109 110
109 153
109 152
110 151
110 150
111 112
111 130
111 129
112 132
112 131
113 114
113 118
113 117
114 122
114 121
115 116
116 1026
116 162
117 118
117 163
117 1027
119 120
119 164
119 160
121 122
121 164
121 165
121 160
122 166
123 124
123 141
123 140
124 139
124 138
125 126
125 147
125 146
126 145
126 144
127 128
128 149
128 148
129 130
129 157
129 156
130 155
130 154
131 132
132 159
132 158
133 134
133 161
133 160
136 137
138 139
139 1028
139 167
140 141
140 166
141 164
141 165
141 160
142 143
144 145
145 1029
145 168
146 147
146 166
147 164
147 165
147 160
148 149
150 151
151 1030
151 169
152 153
152 166
153 164
153 165
154 155
155 1031
155 170
156 157
156 166
157 164
157 165
157 160
158 159
160 161
160 164
160 165
160 276
160 277
160 282
160 290
160 293
160 342
160 350
160 352
160 359
160 365
160 377
160 176
160 440
160 441
160 451
160 454
160 459
160 463
160 469
160 502
160 504
160 506
160 509
160 591
160 593
160 596
160 605
160 606
160 631
160 633
160 645
160 653
160 659
160 669
160 778
160 779
160 784
160 792
160 795
160 844
160 852
160 854
160 861
160 867
160 879
160 942
160 943
160 953
160 956
160 961
160 965
160 971
160 1004
160 1006
160 1008
160 1011
161 172
161 171
161 276
161 277
161 282
161 342
161 502
161 504
161 506
161 509
161 591
161 593
161 596
161 645
161 778
161 779
161 784
161 844
161 1004
161 1006
161 1008
161 1011
162 1026
163 1027
164 165
164 173
164 171
164 290
164 293
164 350
164 352
164 359
164 365
164 373
164 377
164 605
164 606
164 631
164 633
164 653
164 659
164 665
164 669
164 792
164 795
164 852
164 854
164 861
164 867
164 875
164 879
165 352
165 359
165 365
165 373
165 377
165 176
165 454
165 459
165 463
165 467
165 469
165 633
165 653
165 659
165 665
165 669
165 854
165 861
165 867
165 875
165 879
165 956
165 961
165 965
165 969
165 971
167 1028
168 1029
169 1030
170 1031
171 172
171 173
171 176
172 175
172 174
173 175
173 174
173 176
174 175
176 440
176 441
176 451
176 454
176 459
176 463
176 467
176 469
176 942
176 943
176 953
176 956
176 961
176 965
176 969
176 971
177 179
177 178
178 179
178 275
178 274
179 239
179 238
180 181
181 241
181 240
182 184
182 183
183 184
183 275
183 277
184 244
184 254
185 186
186 242
187 188
188 244
188 243
189 190
190 246
190 245
191 192
192 293
192 292
193 194
194 248
194 247
195 196
196 293
197 198
198 249
199 200
200 211
200 209
200 204
200 203
200 225
201 202
202 251
202 250
203 204
204 209
204 208
205 207
205 206
206 207
206 297
206 296
206 266
206 209
206 248
206 262
206 249
206 265
206 250
206 267
207 299
207 298
207 224
207 211
208 209
209 211
209 266
210 211
211 224
211 212
211 214
211 217
211 222
211 220
213 214
214 215
216 217
217 218
219 220
220 222
221 222
222 305
222 304
222 322
223 224
224 301
224 300
224 226
224 227
224 228
224 229
224 380
230 231
231 307
231 306
232 233
233 309
233 308
234 235
235 311
235 310
235 236
235 237
238 239
238 244
238 254
239 271
239 270
240 241
240 253
240 252
241 256
241 255
242 253
242 257
243 244
243 258
243 253
244 254
244 271
244 285
245 246
245 253
245 259
246 261
246 260
247 248
247 264
247 263
248 262
249 265
250 251
250 267
251 269
251 268
252 253
252 273
252 272
253 257
253 258
253 259
253 284
253 283
254 271
254 276
255 256
255 281
255 280
256 279
256 278
257 273
257 282
258 275
258 286
259 273
259 287
260 261
260 281
260 289
261 279
261 288
262 291
262 290
263 264
263 294
264 295
264 294
265 290
266 303
266 302
267 291
267 290
268 269
270 271
270 276
270 337
271 285
271 276
272 273
272 339
272 282
273 282
273 287
274 275
274 277
274 338
275 277
275 286
276 337
276 344
276 285
277 338
277 345
277 286
278 279
278 295
278 294
279 288
280 281
280 294
281 289
282 339
282 287
283 284
283 313
283 312
285 344
286 345
287 339
290 291
291 294
292 293
292 295
292 294
293 302
293 314
294 295
294 337
294 338
294 339
294 341
294 346
294 384
294 349
294 356
294 362
294 374
295 337
295 338
295 341
295 346
295 349
295 384
295 356
295 362
295 370
295 374
296 297
296 316
296 315
298 299
298 318
298 317
299 320
299 319
300 301
300 322
300 321
302 303
302 314
304 305
304 326
304 325
305 324
305 323
306 307
306 330
306 329
307 328
307 327
308 309
309 332
309 331
310 311
310 334
310 333
311 336
311 335
312 313
312 341
312 340
313 343
313 342
315 316
315 351
315 350
316 347
316 346
317 318
317 349
317 348
318 353
318 352
319 320
319 355
319 354
321 322
323 324
323 359
323 358
324 357
324 356
325 326
326 361
326 360
327 328
327 365
327 364
328 363
328 362
329 330
329 369
329 368
330 367
330 366
331 332
331 373
331 372
332 371
332 370
333 334
333 377
333 376
334 375
334 374
335 336
335 381
335 380
336 379
336 378
340 341
342 343
346 347
347 1014
347 382
348 349
348 383
348 1015
349 384
350 351
352 353
354 355
356 357
356 384
357 1016
357 385
358 359
360 361
362 363
362 384
363 1017
363 386
364 365
366 367
368 369
370 371
370 384
371 1018
371 387
372 373
374 375
374 384
375 1019
375 388
376 377
378 379
380 381
382 1014
383 1015
385 1016
386 1017
387 1018
388 1019
389 390
390 401
390 399
390 394
390 393
390 415
391 392
392 429
392 428
393 394
394 399
394 398
395 397
395 396
396 397
396 434
396 433
396 430
396 399
396 428
396 431
397 436
397 435
397 414
397 401
398 399
399 401
399 430
400 401
401 414
401 402
401 404
401 407
401 412
401 410
403 404
404 405
406 407
407 408
409 410
410 412
411 412
412 444
412 443
412 458
413 414
414 438
414 437
414 416
414 417
414 418
414 419
414 483
420 421
421 446
421 445
422 423
423 448
423 447
424 425
425 450
425 449
425 426
425 427
428 429
428 431
429 432
430 440
430 439
431 442
431 441
432 442
432 485
432 452
432 486
432 453
432 460
432 464
432 470
433 434
434 452
434 451
435 436
435 454
435 453
436 456
436 455
437 438
437 458
437 457
439 440
441 442
443 444
443 462
443 461
444 460
444 459
445 446
445 466
445 465
446 464
446 463
447 448
448 468
448 467
449 450
449 470
449 469
450 472
450 471
451 452
452 485
453 454
453 485
453 486
455 456
455 474
455 473
457 458
459 460
460 485
460 486
461 462
462 476
462 475
463 464
464 485
464 486
465 466
465 480
465 479
466 478
466 477
467 468
468 485
468 486
469 470
470 485
470 486
471 472
471 484
471 483
472 482
472 481
473 474
475 476
477 478
479 480
481 482
483 484
485 486
487 488
488 492
488 491
489 490
490 494
490 493
491 492
491 496
491 495
492 503
492 502
493 494
493 495
493 497
494 499
494 498
495 496
495 497
495 501
495 500
496 505
496 504
497 507
497 506
498 499
500 501
500 509
500 508
502 503
504 505
506 507
508 509
508 511
508 510
510 511
512 514
512 513
513 514
513 593
513 592
514 565
514 564
515 516
516 570
516 569
517 518
518 565
518 566
519 520
520 568
520 567
521 522
522 605
522 604
523 524
524 572
524 571
525 526
526 537
526 535
526 530
526 529
526 551
527 528
528 574
528 573
529 530
530 535
530 534
531 533
531 532
532 533
532 608
532 607
532 586
532 535
532 572
532 585
532 573
532 587
533 610
533 609
533 550
533 537
534 535
535 537
535 586
536 537
537 550
537 538
537 540
537 543
537 548
537 546
539 540
540 541
542 543
543 544
545 546
546 548
547 548
548 618
548 617
548 612
549 550
550 612
550 611
550 552
550 553
550 554
550 555
550 643
556 557
557 620
557 619
558 559
559 622
559 621
560 561
561 624
561 623
561 562
561 563
564 565
564 591
564 590
565 566
565 599
566 579
566 578
567 568
567 578
567 580
568 582
568 581
569 570
569 578
569 577
570 576
570 575
571 572
571 584
571 583
572 585
573 574
573 587
574 589
574 588
575 576
575 595
576 594
577 578
577 596
578 579
578 580
578 598
578 597
579 600
579 593
580 601
580 596
581 582
581 603
582 602
583 584
585 606
586 605
586 613
587 614
587 606
588 589
588 615
589 616
589 615
590 591
591 647
591 599
592 593
593 600
596 601
597 598
598 646
598 645
599 647
600 616
600 615
602 616
602 615
603 615
604 605
605 613
606 614
607 608
607 632
607 631
608 628
608 627
609 610
609 626
609 625
610 649
610 648
611 612
613 616
613 615
615 616
615 632
615 674
615 634
615 646
615 647
615 652
615 658
615 668
616 632
616 634
616 674
616 646
616 647
616 652
616 658
616 664
616 668
617 618
617 655
617 654
618 636
618 635
619 620
619 640
619 639
620 638
620 637
621 622
621 665
621 664
622 663
622 662
623 624
623 642
623 641
624 644
624 643
625 626
625 630
625 629
626 634
626 633
627 628
628 1032
628 672
629 630
629 673
629 1033
631 632
633 634
634 674
635 636
635 653
635 652
636 651
636 650
637 638
637 659
637 658
638 657
638 656
639 640
640 661
640 660
641 642
641 669
641 668
642 667
642 666
643 644
644 671
644 670
645 646
648 649
650 651
651 1034
651 675
652 653
652 674
654 655
656 657
657 1035
657 676
658 659
658 674
660 661
662 663
663 1036
663 677
664 665
664 674
666 667
667 1037
667 678
668 669
668 674
670 671
672 1032
673 1033
675 1034
676 1035
677 1036
678 1037
679 681
679 680
680 681
680 777
680 776
681 741
681 740
682 683
683 743
683 742
684 686
684 685
685 686
685 777
685 779
686 746
686 756
687 688
688 744
689 690
690 746
690 745
691 692
692 748
692 747
693 694
694 795
694 794
695 696
696 750
696 749
697 698
698 795
699 700
700 751
701 702
702 713
702 711
702 706
702 705
702 727
703 704
704 753
704 752
705 706
706 711
706 710
707 709
707 708
708 709
708 799
708 798
708 768
708 711
708 750
708 764
708 751
708 767
708 752
708 769
709 801
709 800
709 726
709 713
710 711
711 713
711 768
712 713
713 726
713 714
713 716
713 719
713 724
713 722
715 716
716 717
718 719
719 720
721 722
722 724
723 724
724 807
724 806
724 824
725 726
726 803
726 802
726 728
726 729
726 730
726 731
726 882
732 733
733 809
733 808
734 735
735 811
735 810
736 737
737 813
737 812
737 738
737 739
740 741
740 746
740 756
741 773
741 772
742 743
742 755
742 754
743 758
743 757
744 755
744 759
745 746
745 760
745 755
746 756
746 773
746 787
747 748
747 755
747 761
748 763
748 762
749 750
749 766
749 765
750 764
751 767
752 753
752 769
753 771
753 770
754 755
754 775
754 774
755 759
755 760
755 761
755 786
755 785
756 773
756 778
757 758
757 783
757 782
758 781
758 780
759 775
759 784
760 777
760 788
761 775
761 789
762 763
762 783
762 791
763 781
763 790
764 793
764 792
765 766
765 796
766 797
766 796
767 792
768 805
768 804
769 793
769 792
770 771
772 773
772 778
772 839
773 787
773 778
774 775
774 841
774 784
775 784
775 789
776 777
776 779
776 840
777 779
777 788
778 839
778 846
778 787
779 840
779 847
779 788
780 781
780 797
780 796
781 790
782 783
782 796
783 791
784 841
784 789
785 786
785 815
785 814
787 846
788 847
789 841
792 793
793 796
794 795
794 797
794 796
795 804
795 816
796 797
796 839
796 840
796 841
796 843
796 848
796 886
796 851
796 858
796 864
796 876
797 839
797 840
797 843
797 848
797 851
797 886
797 858
797 864
797 872
797 876
798 799
798 818
798 817
800 801
800 820
800 819
801 822
801 821
802 803
802 824
802 823
804 805
804 816
806 807
806 828
806 827
807 826
807 825
808 809
808 832
808 831
809 830
809 829
810 811
811 834
811 833
812 813
812 836
812 835
813 838
813 837
814 815
814 843
814 842
815 845
815 844
817 818
817 853
817 852
818 849
818 848
819 820
819 851
819 850
820 855
820 854
821 822
821 857
821 856
823 824
825 826
825 861
825 860
826 859
826 858
827 828
828 863
828 862
829 830
829 867
829 866
830 865
830 864
831 832
831 871
831 870
832 869
832 868
833 834
833 875
833 874
834 873
834 872
835 836
835 879
835 878
836 877
836 876
837 838
837 883
837 882
838 881
838 880
842 843
844 845
848 849
849 1020
849 884
850 851
850 885
850 1021
851 886
852 853
854 855
856 857
858 859
858 886
859 1022
859 887
860 861
862 863
864 865
864 886
865 1023
865 888
866 867
868 869
870 871
872 873
872 886
873 1024
873 889
874 875
876 877
876 886
877 1025
877 890
878 879
880 881
882 883
884 1020
885 1021
887 1022
888 1023
889 1024
890 1025
891 892
892 903
892 901
892 896
892 895
892 917
893 894
894 931
894 930
895 896
896 901
896 900
897 899
897 898
898 899
898 936
898 935
898 932
898 901
898 930
898 933
899 938
899 937
899 916
899 903
900 901
901 903
901 932
902 903
903 916
903 904
903 906
903 909
903 914
903 912
905 906
906 907
908 909
909 910
911 912
912 914
913 914
914 946
914 945
914 960
915 916
916 940
916 939
916 918
916 919
916 920
916 921
916 985
922 923
923 948
923 947
924 925
925 950
925 949
926 927
927 952
927 951
927 928
927 929
930 931
930 933
931 934
932 942
932 941
933 944
933 943
934 944
934 987
934 954
934 988
934 955
934 962
934 966
934 972
935 936
936 954
936 953
937 938
937 956
937 955
938 958
938 957
939 940
939 960
939 959
941 942
943 944
945 946
945 964
945 963
946 962
946 961
947 948
947 968
947 967
948 966
948 965
949 950
950 970
950 969
951 952
951 972
951 971
952 974
952 973
953 954
954 987
955 956
955 987
955 988
957 958
957 976
957 975
959 960
961 962
962 987
962 988
963 964
964 978
964 977
965 966
966 987
966 988
967 968
967 982
967 981
968 980
968 979
969 970
970 987
970 988
971 972
972 987
972 988
973 974
973 986
973 985
974 984
974 983
975 976
977 978
979 980
981 982
983 984
985 986
987 988
989 990
990 994
990 993
991 992
992 996
992 995
993 994
993 998
993 997
994 1005
994 1004
995 996
995 997
995 999
996 1001
996 1000
997 998
997 999
997 1003
997 1002
998 1007
998 1006
999 1009
999 1008
1000 1001
1002 1003
1002 1011
1002 1010
1004 1005
1006 1007
1008 1009
1010 1011
1010 1013
1010 1012
1012 1013
